c FILE			: sample.gr
c No. of vertices	: 256
c No. of directed edges	: 2381
c Max. weight		: 256
c Min. weight		: 0
c A directed arc from u to v of weight w
c is represented below as ' a  u  v  w '
p sp 256 2381
a 1 170 203
a 1 170 194
a 1 20 158
a 1 20 207
a 1 20 69
a 1 148 202
a 1 148 80
a 1 148 240
a 1 240 229
a 1 187 155
a 2 115 85
a 2 115 125
a 2 180 189
a 2 180 2
a 2 180 70
a 2 80 108
a 2 80 136
a 2 80 213
a 2 67 96
a 2 67 9
a 2 231 80
a 3 208 50
a 3 208 101
a 3 208 196
a 3 178 158
a 3 178 2
a 3 233 187
a 3 233 143
a 3 233 34
a 3 93 82
a 3 93 222
a 3 93 10
a 3 202 235
a 3 26 210
a 4 238 188
a 4 238 139
a 4 165 29
a 4 165 52
a 4 165 69
a 4 205 142
a 4 205 215
a 4 153 115
a 4 16 46
a 4 189 216
a 5 75 19
a 5 149 156
a 6 181 50
a 6 181 83
a 6 11 142
a 6 11 34
a 6 133 206
a 6 133 121
a 6 133 203
a 6 117 161
a 6 117 200
a 7 47 70
a 7 47 202
a 7 131 95
a 7 131 230
a 7 23 231
a 7 23 153
a 7 36 249
a 7 36 53
a 7 36 110
a 7 223 38
a 7 223 40
a 7 142 192
a 7 56 23
a 8 28 3
a 8 28 24
a 8 203 18
a 8 203 71
a 8 203 167
a 8 157 11
a 8 157 205
a 8 72 34
a 8 72 241
a 8 72 47
a 8 246 191
a 8 246 166
a 8 228 138
a 8 37 39
a 9 255 128
a 9 255 233
a 9 140 168
a 9 140 144
a 9 10 44
a 9 226 139
a 10 171 214
a 10 171 79
a 10 37 174
a 10 49 137
a 10 224 221
a 11 6 84
a 11 6 219
a 11 6 235
a 11 181 96
a 11 181 222
a 11 133 216
a 11 133 96
a 12 83 32
a 12 83 54
a 12 151 7
a 12 28 43
a 12 253 87
a 13 95 220
a 13 95 137
a 13 95 144
a 13 106 8
a 13 106 132
a 13 160 71
a 13 160 188
a 13 174 184
a 13 174 173
a 13 174 243
a 13 60 19
a 13 60 187
a 14 192 44
a 14 192 72
a 14 192 80
a 14 150 70
a 14 150 220
a 14 150 54
a 14 90 190
a 14 90 19
a 14 90 173
a 14 113 239
a 14 113 186
a 14 79 98
a 14 79 152
a 15 112 219
a 15 112 149
a 15 112 103
a 15 40 191
a 15 40 55
a 15 109 163
a 15 109 147
a 15 109 184
a 15 46 33
a 16 143 46
a 16 143 136
a 16 186 173
a 16 186 247
a 16 186 120
a 16 30 32
a 16 30 213
a 16 107 201
a 17 50 178
a 17 50 191
a 17 50 65
a 17 152 107
a 17 102 0
a 17 102 89
a 18 140 240
a 18 140 217
a 18 159 31
a 18 187 114
a 18 171 29
a 19 150 237
a 19 150 78
a 19 14 146
a 20 69 66
a 20 69 100
a 20 69 32
a 20 1 95
a 20 1 95
a 20 170 174
a 20 170 151
a 20 148 15
a 20 148 239
a 20 148 210
a 20 145 120
a 20 145 215
a 20 145 34
a 21 84 128
a 21 84 2
a 21 84 214
a 21 235 205
a 21 235 41
a 21 235 215
a 21 167 124
a 21 167 53
a 21 183 164
a 21 183 59
a 21 183 133
a 22 26 158
a 22 26 6
a 22 26 102
a 22 53 33
a 22 53 115
a 22 207 27
a 22 207 28
a 22 207 99
a 22 84 1
a 22 85 241
a 23 47 134
a 23 47 195
a 23 131 170
a 23 131 132
a 23 36 73
a 23 36 65
a 23 223 92
a 23 223 143
a 23 7 180
a 23 7 52
a 23 7 140
a 23 172 227
a 24 120 254
a 24 120 139
a 24 120 181
a 24 38 85
a 24 38 62
a 24 38 123
a 24 198 19
a 24 198 64
a 24 188 19
a 24 46 124
a 25 48 32
a 25 48 61
a 25 48 80
a 25 190 109
a 25 190 69
a 25 190 38
a 26 22 39
a 26 22 148
a 26 22 219
a 26 53 242
a 26 53 141
a 26 207 237
a 26 207 123
a 26 88 224
a 27 103 42
a 27 103 72
a 27 127 192
a 27 127 75
a 27 252 24
a 27 252 9
a 27 21 255
a 28 203 221
a 28 203 59
a 28 157 232
a 28 157 173
a 28 72 179
a 28 72 48
a 28 72 112
a 28 52 20
a 29 229 154
a 29 229 91
a 29 229 179
a 29 45 231
a 29 45 163
a 29 76 246
a 29 76 8
a 30 138 221
a 30 138 90
a 30 138 0
a 30 107 2
a 30 107 214
a 30 107 131
a 30 189 245
a 30 189 111
a 30 55 98
a 30 55 179
a 31 81 72
a 31 81 83
a 31 244 104
a 31 244 182
a 31 244 221
a 31 68 34
a 31 68 255
a 31 68 251
a 31 177 83
a 31 177 139
a 31 248 222
a 31 248 59
a 31 248 8
a 32 61 178
a 32 61 105
a 32 227 232
a 32 227 20
a 32 227 240
a 32 64 33
a 32 64 89
a 32 66 99
a 33 119 209
a 33 119 12
a 33 119 232
a 33 247 238
a 33 247 82
a 33 247 59
a 33 11 15
a 33 86 49
a 34 105 14
a 34 105 0
a 34 126 210
a 34 126 247
a 34 164 82
a 34 164 0
a 35 60 119
a 35 60 218
a 35 239 59
a 35 239 205
a 35 250 152
a 35 250 93
a 35 256 151
a 35 256 153
a 35 50 171
a 35 50 241
a 35 152 115
a 35 173 37
a 35 210 107
a 36 47 46
a 36 47 126
a 36 131 237
a 36 131 25
a 36 131 10
a 36 23 130
a 36 23 234
a 36 223 28
a 36 223 149
a 36 223 42
a 36 7 175
a 36 7 42
a 36 7 82
a 37 65 202
a 37 65 95
a 37 65 7
a 37 201 217
a 37 201 103
a 37 201 142
a 37 226 68
a 37 108 204
a 38 198 167
a 38 198 207
a 38 198 148
a 38 24 149
a 38 24 135
a 39 62 4
a 39 62 55
a 39 62 42
a 39 188 243
a 39 188 54
a 39 144 195
a 39 144 96
a 39 132 146
a 39 132 75
a 39 112 37
a 39 112 110
a 39 112 159
a 39 182 193
a 39 48 225
a 40 112 20
a 40 112 229
a 40 112 86
a 40 15 178
a 40 15 71
a 40 15 90
a 40 109 65
a 40 109 46
a 40 42 243
a 40 42 239
a 41 79 85
a 41 79 170
a 41 124 82
a 41 124 196
a 41 124 86
a 41 92 45
a 41 92 117
a 41 92 75
a 41 211 221
a 41 211 160
a 41 81 191
a 42 236 237
a 42 236 195
a 42 236 95
a 42 77 11
a 42 77 225
a 42 77 145
a 42 116 146
a 42 116 170
a 42 182 23
a 42 182 175
a 42 182 225
a 42 237 109
a 43 185 198
a 43 185 71
a 43 220 247
a 43 220 77
a 43 129 180
a 44 238 0
a 44 238 211
a 44 238 45
a 44 165 97
a 44 165 240
a 44 205 203
a 44 205 6
a 44 204 255
a 44 204 112
a 44 4 178
a 44 4 173
a 44 4 212
a 44 155 107
a 44 202 40
a 44 172 188
a 45 29 45
a 45 29 47
a 45 58 61
a 45 58 92
a 45 58 14
a 45 229 117
a 45 229 5
a 45 76 114
a 45 76 187
a 45 76 249
a 45 218 33
a 45 150 88
a 46 42 229
a 46 42 2
a 46 236 177
a 46 236 19
a 46 236 145
a 46 77 181
a 46 77 178
a 46 116 167
a 46 116 25
a 46 182 184
a 46 182 100
a 46 182 204
a 46 94 138
a 46 94 186
a 46 96 224
a 47 131 237
a 47 131 19
a 47 131 217
a 47 23 226
a 47 23 55
a 47 36 28
a 47 36 208
a 47 36 232
a 47 223 73
a 47 223 4
a 47 223 60
a 47 7 135
a 47 7 46
a 47 7 248
a 48 25 188
a 48 25 196
a 48 25 135
a 48 190 219
a 48 190 201
a 48 190 21
a 48 194 196
a 48 194 161
a 48 194 21
a 48 26 193
a 49 214 181
a 49 180 198
a 49 188 153
a 50 17 168
a 50 17 223
a 50 102 141
a 50 223 55
a 51 217 212
a 51 217 93
a 51 199 70
a 51 191 29
a 52 222 223
a 52 222 150
a 52 222 195
a 52 118 99
a 52 118 63
a 52 98 47
a 52 98 80
a 52 98 17
a 52 110 78
a 52 110 221
a 52 110 168
a 52 89 39
a 52 89 164
a 52 57 200
a 52 57 133
a 52 57 196
a 53 26 242
a 53 26 198
a 53 26 75
a 53 22 34
a 53 22 129
a 53 22 144
a 53 207 82
a 53 207 122
a 53 207 131
a 53 176 235
a 53 176 121
a 53 176 199
a 53 47 86
a 54 151 216
a 54 151 210
a 54 151 117
a 54 203 79
a 55 233 36
a 55 233 75
a 55 233 63
a 55 93 34
a 55 93 55
a 55 93 206
a 55 3 120
a 55 3 250
a 55 3 129
a 55 48 202
a 55 48 194
a 55 190 112
a 55 26 248
a 56 85 36
a 56 85 89
a 56 173 100
a 56 173 48
a 56 173 208
a 56 248 45
a 57 69 244
a 58 29 153
a 58 29 41
a 58 29 49
a 58 229 144
a 58 229 93
a 58 45 244
a 58 45 21
a 58 76 131
a 58 76 152
a 58 136 211
a 58 136 121
a 58 166 186
a 58 38 203
a 59 117 0
a 59 117 79
a 59 243 233
a 59 243 82
a 59 139 217
a 59 210 68
a 60 239 83
a 60 239 1
a 60 250 67
a 60 250 110
a 60 35 12
a 60 35 200
a 60 35 116
a 60 256 183
a 60 256 105
a 60 256 7
a 61 137 48
a 61 137 213
a 61 32 224
a 61 32 94
a 61 227 125
a 61 227 210
a 61 64 240
a 61 64 89
a 62 188 118
a 62 188 195
a 62 188 115
a 62 144 11
a 62 144 88
a 62 39 101
a 62 39 47
a 62 39 235
a 62 132 78
a 62 132 243
a 62 112 218
a 62 107 87
a 63 196 148
a 63 196 182
a 63 249 103
a 63 249 22
a 63 254 101
a 63 254 144
a 63 53 35
a 63 51 58
a 64 61 150
a 64 61 40
a 64 61 253
a 64 137 160
a 64 137 44
a 64 32 96
a 64 32 50
a 64 227 172
a 64 227 233
a 64 227 105
a 64 59 87
a 64 91 181
a 65 37 197
a 65 37 58
a 65 201 237
a 65 201 217
a 65 49 108
a 65 49 94
a 65 226 244
a 65 224 238
a 66 117 97
a 66 117 169
a 66 117 46
a 66 59 204
a 66 59 203
a 66 243 59
a 66 243 47
a 66 234 235
a 66 234 103
a 66 206 171
a 67 115 80
a 67 115 168
a 67 180 220
a 67 180 67
a 67 180 228
a 67 80 55
a 67 80 241
a 67 80 220
a 67 2 120
a 67 2 173
a 67 184 214
a 67 105 101
a 68 81 132
a 68 81 1
a 68 31 58
a 68 31 17
a 68 244 34
a 68 244 53
a 68 177 45
a 68 177 112
a 68 177 172
a 68 248 210
a 68 248 214
a 69 1 44
a 69 1 61
a 69 170 52
a 69 170 113
a 69 170 129
a 69 20 207
a 69 20 93
a 69 148 95
a 69 148 14
a 69 148 57
a 69 145 158
a 69 145 49
a 69 140 178
a 70 251 42
a 70 251 222
a 70 123 4
a 70 123 240
a 70 123 132
a 70 27 133
a 71 82 186
a 71 82 157
a 71 175 216
a 71 175 199
a 71 175 71
a 71 130 216
a 71 130 228
a 72 28 216
a 72 28 45
a 72 28 172
a 72 203 33
a 72 203 58
a 72 157 97
a 72 157 119
a 72 8 140
a 72 8 100
a 72 8 163
a 72 179 45
a 72 179 141
a 72 228 244
a 73 225 118
a 73 225 145
a 73 225 101
a 73 98 121
a 74 234 136
a 74 234 92
a 74 234 44
a 74 206 95
a 74 206 197
a 74 206 107
a 74 210 50
a 75 142 30
a 75 142 47
a 75 142 182
a 75 56 152
a 75 56 34
a 76 58 4
a 76 58 95
a 76 58 138
a 76 45 181
a 76 45 155
a 76 45 173
a 76 136 68
a 76 136 59
a 76 166 81
a 77 46 45
a 77 46 46
a 77 46 136
a 77 236 111
a 77 236 202
a 77 236 22
a 77 182 75
a 77 182 40
a 77 182 41
a 77 96 232
a 78 86 10
a 78 86 131
a 78 86 89
a 78 91 96
a 78 91 38
a 78 210 133
a 78 210 14
a 78 12 63
a 78 12 168
a 79 41 123
a 79 41 162
a 79 41 184
a 79 124 59
a 79 124 75
a 79 92 213
a 79 92 8
a 79 211 169
a 79 211 64
a 79 82 189
a 79 82 200
a 80 115 248
a 80 115 63
a 80 115 145
a 80 180 14
a 80 180 125
a 80 67 5
a 80 67 156
a 80 2 29
a 80 2 181
a 81 244 154
a 81 244 231
a 81 244 168
a 81 68 126
a 81 68 250
a 81 177 194
a 81 177 186
a 81 248 106
a 81 248 242
a 81 248 116
a 82 175 144
a 82 175 120
a 82 175 255
a 82 71 27
a 82 71 241
a 82 71 186
a 82 213 40
a 82 9 23
a 83 12 219
a 83 12 221
a 84 21 133
a 84 21 120
a 84 21 57
a 84 235 203
a 84 235 110
a 84 167 248
a 84 167 197
a 84 167 253
a 84 183 119
a 84 183 245
a 84 23 63
a 85 149 220
a 85 149 15
a 85 149 184
a 85 99 169
a 85 99 26
a 85 99 237
a 85 215 129
a 85 215 89
a 85 113 67
a 86 91 186
a 86 91 249
a 86 210 177
a 86 210 22
a 86 78 221
a 86 78 136
a 86 78 189
a 86 170 131
a 87 195 228
a 87 195 121
a 87 195 215
a 87 159 164
a 87 159 33
a 87 161 35
a 87 161 123
a 87 161 8
a 87 187 186
a 87 187 59
a 87 168 186
a 87 168 124
a 87 168 34
a 87 171 53
a 87 171 131
a 88 122 98
a 88 70 104
a 89 222 218
a 89 222 58
a 89 118 67
a 89 118 207
a 89 52 56
a 89 52 72
a 89 52 102
a 89 98 70
a 89 98 122
a 89 98 158
a 89 232 251
a 89 170 46
a 89 170 147
a 90 192 245
a 90 192 190
a 90 150 224
a 90 150 34
a 90 150 28
a 90 113 208
a 90 113 56
a 90 113 217
a 90 14 247
a 90 14 219
a 90 124 141
a 91 86 239
a 91 86 150
a 91 86 162
a 91 210 68
a 91 210 52
a 91 210 119
a 92 41 104
a 92 41 21
a 92 41 114
a 92 79 54
a 92 79 227
a 92 79 185
a 92 124 34
a 92 124 77
a 92 211 240
a 92 211 147
a 92 81 167
a 92 81 5
a 93 208 111
a 93 208 150
a 93 208 70
a 93 178 81
a 93 178 169
a 93 233 42
a 93 233 252
a 93 233 47
a 93 3 173
a 93 3 49
a 93 55 91
a 93 55 144
a 93 48 204
a 93 249 168
a 94 193 64
a 94 193 23
a 94 212 21
a 94 212 25
a 94 212 28
a 94 237 235
a 94 237 141
a 94 111 253
a 94 111 84
a 94 111 3
a 94 96 106
a 94 96 206
a 94 4 228
a 95 106 144
a 95 106 84
a 95 160 123
a 95 160 11
a 95 13 38
a 95 13 128
a 95 13 157
a 95 174 87
a 95 174 22
a 95 35 79
a 95 131 114
a 96 94 49
a 96 94 49
a 96 193 65
a 96 193 20
a 96 193 112
a 96 212 220
a 96 212 14
a 96 212 239
a 96 237 63
a 96 237 101
a 96 237 69
a 96 111 220
a 96 111 32
a 96 111 66
a 96 165 56
a 96 165 9
a 96 204 121
a 96 143 20
a 96 208 115
a 97 191 158
a 97 191 216
a 97 125 249
a 97 125 115
a 97 125 11
a 97 225 40
a 97 225 159
a 97 94 22
a 98 222 182
a 98 222 195
a 98 222 125
a 98 118 205
a 98 118 169
a 98 52 109
a 98 52 249
a 98 52 213
a 98 110 104
a 98 110 101
a 98 110 236
a 98 89 14
a 98 89 98
a 98 89 48
a 98 69 152
a 98 69 29
a 99 85 85
a 99 85 41
a 99 56 189
a 99 56 88
a 99 149 64
a 99 149 229
a 99 149 135
a 99 215 189
a 99 215 245
a 99 136 230
a 100 122 237
a 100 122 102
a 100 122 65
a 100 114 150
a 100 114 25
a 101 166 171
a 101 166 56
a 101 166 239
a 101 172 56
a 101 172 153
a 101 200 25
a 101 200 102
a 101 200 211
a 102 128 147
a 102 128 195
a 102 152 86
a 102 152 44
a 102 242 0
a 102 242 90
a 102 242 76
a 102 245 245
a 102 245 175
a 102 245 108
a 102 47 92
a 102 36 212
a 102 142 226
a 102 28 169
a 103 27 155
a 103 27 44
a 103 27 168
a 103 127 50
a 103 127 13
a 104 209 41
a 104 209 203
a 104 209 163
a 104 162 10
a 104 162 186
a 105 126 170
a 105 126 93
a 105 164 172
a 105 164 130
a 105 219 70
a 106 95 196
a 106 95 208
a 106 95 42
a 106 160 128
a 106 160 124
a 106 13 242
a 106 13 50
a 106 13 231
a 106 174 167
a 106 174 57
a 106 174 141
a 106 2 28
a 107 30 227
a 107 30 186
a 107 30 90
a 107 138 251
a 107 138 235
a 107 138 169
a 107 189 67
a 107 189 214
a 107 208 26
a 107 208 111
a 107 233 231
a 107 25 244
a 107 53 198
a 108 146 4
a 108 146 182
a 108 146 192
a 108 226 185
a 108 226 246
a 108 226 134
a 108 197 144
a 108 197 187
a 108 147 117
a 108 147 14
a 108 214 91
a 108 214 89
a 108 180 91
a 108 2 136
a 108 2 240
a 109 112 241
a 109 112 193
a 109 112 64
a 109 40 29
a 109 40 203
a 109 46 254
a 110 222 85
a 110 222 169
a 110 222 92
a 110 52 148
a 110 52 49
a 110 52 123
a 110 98 234
a 110 98 214
a 110 89 126
a 110 89 151
a 110 89 109
a 110 57 180
a 110 145 180
a 110 10 88
a 111 94 153
a 111 94 216
a 111 193 85
a 111 193 179
a 111 193 210
a 111 212 217
a 111 212 210
a 111 212 118
a 111 237 110
a 111 237 172
a 111 96 214
a 111 96 166
a 111 96 40
a 111 238 18
a 111 238 125
a 112 15 138
a 112 15 130
a 112 15 169
a 112 40 74
a 112 40 230
a 112 109 199
a 112 109 220
a 112 42 248
a 113 192 223
a 113 192 116
a 113 150 35
a 113 150 21
a 113 150 243
a 113 90 51
a 113 90 6
a 113 14 223
a 113 14 148
a 113 14 70
a 113 41 179
a 113 124 31
a 114 100 148
a 114 100 156
a 114 100 179
a 114 122 236
a 114 122 99
a 114 122 197
a 114 70 230
a 114 70 1
a 114 70 126
a 115 180 69
a 115 180 140
a 115 180 208
a 115 80 249
a 115 80 54
a 115 80 83
a 115 184 74
a 116 42 44
a 116 42 86
a 116 46 17
a 116 46 54
a 116 46 180
a 116 77 190
a 116 77 154
a 116 77 27
a 116 182 229
a 116 182 250
a 116 94 206
a 116 237 207
a 117 59 72
a 117 59 59
a 117 66 240
a 117 66 56
a 117 66 114
a 117 243 104
a 117 243 149
a 117 243 24
a 117 234 232
a 117 28 27
a 117 135 121
a 118 222 201
a 118 222 137
a 118 222 87
a 118 52 236
a 118 52 108
a 118 98 125
a 118 98 183
a 118 110 225
a 118 110 116
a 118 110 198
a 118 89 82
a 118 89 40
a 118 148 147
a 119 33 171
a 119 33 4
a 119 6 182
a 119 6 190
a 120 38 155
a 120 38 87
a 120 198 31
a 120 198 70
a 120 24 81
a 120 24 162
a 120 24 5
a 121 184 85
a 121 184 69
a 121 231 171
a 121 231 41
a 121 158 174
a 121 162 251
a 122 100 234
a 122 100 81
a 122 100 128
a 122 114 251
a 122 114 145
a 122 123 254
a 123 70 85
a 123 70 128
a 123 70 110
a 123 103 43
a 123 103 78
a 123 252 23
a 124 41 180
a 124 41 114
a 124 79 158
a 124 79 228
a 124 79 207
a 124 92 186
a 124 92 240
a 124 92 226
a 124 211 96
a 124 211 157
a 124 211 237
a 124 31 60
a 124 129 206
a 125 97 158
a 125 97 159
a 125 191 149
a 125 191 82
a 125 191 237
a 125 225 127
a 125 225 167
a 125 118 110
a 125 118 117
a 125 118 164
a 126 105 30
a 126 105 77
a 126 34 105
a 126 34 80
a 126 34 7
a 126 164 138
a 126 164 108
a 126 219 226
a 126 116 88
a 127 27 62
a 127 27 225
a 127 103 247
a 127 103 88
a 127 252 52
a 127 252 41
a 127 252 109
a 127 21 96
a 128 152 173
a 128 152 179
a 128 152 226
a 128 242 145
a 128 242 119
a 128 242 85
a 128 102 55
a 128 102 5
a 128 245 31
a 128 245 214
a 128 245 59
a 129 213 221
a 129 213 108
a 129 230 234
a 129 230 121
a 129 230 168
a 129 241 15
a 129 241 7
a 129 241 24
a 130 163 123
a 130 163 23
a 130 141 75
a 130 141 75
a 130 141 57
a 130 43 163
a 130 220 18
a 130 33 52
a 131 47 196
a 131 47 182
a 131 23 54
a 131 23 61
a 131 23 27
a 131 36 124
a 131 36 239
a 131 36 80
a 131 223 113
a 131 223 199
a 131 223 231
a 131 7 42
a 131 7 49
a 131 7 203
a 131 149 180
a 132 62 71
a 132 62 205
a 132 188 92
a 132 188 96
a 132 144 9
a 132 144 163
a 132 39 211
a 132 39 185
a 132 39 181
a 132 42 85
a 132 182 77
a 133 6 45
a 133 6 147
a 133 6 131
a 133 181 130
a 133 181 209
a 133 11 68
a 133 11 159
a 133 11 67
a 133 137 154
a 133 234 18
a 134 199 80
a 134 199 48
a 134 199 51
a 134 97 45
a 134 97 26
a 134 125 97
a 134 125 149
a 134 118 22
a 135 156 247
a 135 156 232
a 135 62 53
a 135 132 114
a 136 29 100
a 136 29 158
a 136 58 77
a 136 58 22
a 136 58 164
a 136 229 4
a 136 229 79
a 136 229 41
a 136 45 147
a 136 45 203
a 136 45 109
a 136 76 169
a 136 76 208
a 136 101 199
a 136 101 68
a 136 101 28
a 137 61 104
a 137 61 208
a 137 61 22
a 137 32 230
a 137 32 166
a 137 32 243
a 137 227 16
a 137 227 111
a 137 227 171
a 137 64 167
a 137 64 54
a 137 59 58
a 137 139 13
a 137 12 63
a 138 30 215
a 138 30 115
a 138 30 8
a 138 107 239
a 138 107 167
a 138 189 202
a 138 189 181
a 138 48 149
a 138 53 190
a 139 234 245
a 139 234 207
a 139 74 209
a 139 74 172
a 139 86 168
a 139 86 189
a 140 18 235
a 140 18 77
a 140 18 18
a 140 195 136
a 140 195 30
a 140 87 81
a 140 37 242
a 141 163 15
a 141 163 253
a 141 130 186
a 141 130 237
a 141 220 111
a 141 119 87
a 142 75 78
a 142 75 13
a 142 85 247
a 142 58 98
a 142 129 108
a 143 16 166
a 143 16 119
a 143 186 12
a 143 186 23
a 144 62 240
a 144 62 191
a 144 188 121
a 144 188 41
a 144 39 174
a 144 39 214
a 144 39 187
a 144 132 200
a 144 132 19
a 144 40 212
a 145 240 197
a 145 240 11
a 145 154 204
a 146 226 25
a 146 226 37
a 146 226 82
a 146 197 144
a 146 197 22
a 146 197 203
a 146 147 74
a 146 147 77
a 146 147 185
a 146 214 238
a 146 214 74
a 146 214 160
a 146 108 162
a 146 108 113
a 146 108 134
a 147 146 44
a 147 146 177
a 147 226 15
a 147 226 103
a 147 197 5
a 147 197 99
a 147 214 254
a 147 214 186
a 147 214 104
a 147 108 177
a 147 108 178
a 147 108 142
a 148 69 51
a 148 69 169
a 148 69 243
a 148 170 231
a 148 170 225
a 148 170 13
a 148 20 144
a 148 20 237
a 148 20 126
a 148 240 66
a 148 240 122
a 149 85 106
a 149 85 79
a 149 85 168
a 149 56 65
a 149 56 2
a 149 99 89
a 149 99 103
a 149 99 100
a 149 173 136
a 149 173 84
a 149 215 202
a 149 215 6
a 149 215 172
a 149 54 47
a 150 192 187
a 150 192 235
a 150 90 57
a 150 90 126
a 150 113 252
a 150 113 62
a 150 14 127
a 150 14 189
a 150 175 25
a 151 28 91
a 151 28 122
a 151 157 245
a 151 157 101
a 152 128 168
a 152 128 248
a 152 242 23
a 152 242 103
a 152 242 60
a 152 245 233
a 152 245 151
a 152 245 209
a 152 47 111
a 152 5 208
a 152 41 169
a 153 155 64
a 153 155 252
a 153 155 143
a 153 233 128
a 154 216 76
a 154 216 37
a 154 9 51
a 154 9 232
a 154 255 185
a 154 255 147
a 154 161 217
a 155 153 49
a 155 153 130
a 155 143 250
a 155 143 120
a 155 30 226
a 155 30 211
a 156 135 28
a 156 135 75
a 156 120 232
a 157 28 92
a 157 28 221
a 157 203 18
a 157 203 167
a 157 203 42
a 157 72 120
a 157 72 178
a 157 72 103
a 157 8 87
a 157 8 115
a 157 51 16
a 157 110 89
a 158 209 144
a 158 209 251
a 158 156 133
a 159 195 241
a 159 195 30
a 159 87 90
a 159 87 133
a 159 87 31
a 159 187 140
a 159 187 151
a 159 187 87
a 159 168 2
a 159 168 239
a 159 168 250
a 159 10 250
a 159 10 189
a 159 22 69
a 160 95 25
a 160 95 135
a 160 106 73
a 160 106 236
a 160 13 69
a 160 13 112
a 160 174 225
a 160 174 173
a 160 174 17
a 161 159 74
a 161 159 40
a 161 87 204
a 161 87 212
a 161 187 120
a 161 187 132
a 161 168 191
a 161 168 242
a 161 168 6
a 162 34 151
a 162 164 245
a 163 130 12
a 163 130 247
a 163 141 216
a 163 141 127
a 163 185 144
a 163 185 81
a 163 137 236
a 164 105 216
a 164 105 44
a 164 105 251
a 164 34 69
a 164 34 230
a 164 156 138
a 164 120 223
a 164 188 2
a 165 238 20
a 165 238 85
a 165 238 194
a 165 205 245
a 165 205 239
a 165 204 22
a 165 204 78
a 165 204 93
a 165 4 4
a 165 4 99
a 165 4 45
a 165 155 169
a 165 155 65
a 166 218 95
a 166 218 89
a 166 218 190
a 166 200 30
a 166 200 60
a 166 101 74
a 166 101 82
a 166 101 104
a 166 19 124
a 166 19 72
a 166 113 229
a 166 113 3
a 167 21 115
a 167 21 57
a 167 21 121
a 167 84 110
a 167 84 14
a 167 235 129
a 167 235 98
a 167 235 159
a 167 183 154
a 167 183 72
a 168 159 95
a 168 159 89
a 168 87 95
a 168 87 253
a 168 87 251
a 168 187 72
a 168 187 150
a 168 187 124
a 168 171 58
a 168 171 115
a 168 65 131
a 168 65 184
a 169 83 197
a 169 54 125
a 169 225 134
a 170 69 146
a 170 69 1
a 170 69 102
a 170 1 145
a 170 1 237
a 170 1 238
a 170 20 86
a 170 20 175
a 170 148 125
a 170 148 225
a 170 148 197
a 171 10 188
a 171 10 169
a 171 65 219
a 171 146 131
a 172 166 79
a 172 166 68
a 172 200 16
a 172 200 194
a 172 101 66
a 172 101 250
a 172 101 21
a 172 19 76
a 172 113 114
a 172 20 129
a 173 85 38
a 173 85 254
a 173 149 130
a 173 149 120
a 173 149 27
a 173 99 205
a 173 99 62
a 173 215 100
a 173 215 233
a 173 215 179
a 173 29 77
a 173 29 17
a 173 229 105
a 173 200 155
a 173 43 233
a 174 95 61
a 174 95 81
a 174 106 145
a 174 106 11
a 174 106 82
a 174 13 52
a 174 13 80
a 174 13 235
a 174 239 8
a 174 256 211
a 174 256 192
a 174 256 162
a 175 82 79
a 175 82 115
a 175 71 54
a 175 71 167
a 175 71 139
a 175 163 55
a 175 43 229
a 176 100 89
a 176 114 163
a 176 114 175
a 176 27 67
a 177 81 40
a 177 81 149
a 177 31 29
a 177 31 239
a 177 31 39
a 177 244 251
a 177 244 99
a 177 68 68
a 177 68 166
a 177 248 26
a 177 248 169
a 177 248 138
a 177 33 79
a 177 9 95
a 177 254 30
a 178 208 61
a 178 208 242
a 178 208 116
a 178 233 198
a 178 233 56
a 178 233 17
a 178 93 164
a 178 93 112
a 178 93 205
a 178 55 49
a 178 55 204
a 179 51 84
a 180 80 160
a 180 80 70
a 180 80 144
a 180 67 52
a 180 67 2
a 180 67 107
a 180 2 31
a 180 2 140
a 180 2 99
a 181 6 2
a 181 6 223
a 181 11 71
a 181 11 156
a 181 133 67
a 181 133 234
a 181 59 210
a 182 42 99
a 182 42 22
a 182 46 26
a 182 46 106
a 182 46 11
a 182 236 52
a 182 236 231
a 182 77 206
a 182 77 125
a 182 77 187
a 182 116 178
a 182 116 116
a 182 116 132
a 182 165 77
a 183 21 213
a 183 21 255
a 183 21 65
a 183 84 13
a 183 84 4
a 183 84 133
a 183 235 144
a 183 235 25
a 183 167 103
a 183 167 78
a 183 174 209
a 184 121 24
a 184 121 79
a 184 121 20
a 184 104 148
a 184 105 144
a 185 43 186
a 185 43 99
a 185 43 72
a 185 221 242
a 185 221 63
a 185 221 158
a 185 213 0
a 185 241 44
a 186 143 60
a 186 143 122
a 186 16 245
a 186 16 237
a 186 16 138
a 187 195 55
a 187 195 87
a 187 195 200
a 187 159 71
a 187 159 0
a 187 161 157
a 187 161 216
a 187 87 53
a 187 87 42
a 187 87 123
a 187 168 68
a 187 168 74
a 187 168 41
a 187 10 176
a 187 65 197
a 187 42 159
a 188 62 119
a 188 62 210
a 188 62 130
a 188 144 5
a 188 144 187
a 188 144 157
a 188 132 251
a 188 132 154
a 189 30 192
a 189 30 84
a 189 138 87
a 189 138 171
a 189 138 67
a 189 107 72
a 189 107 63
a 189 107 12
a 189 178 36
a 189 178 244
a 189 21 25
a 189 187 194
a 190 48 80
a 190 48 101
a 190 25 145
a 190 25 5
a 190 194 200
a 190 194 175
a 190 194 103
a 190 254 111
a 190 88 7
a 191 97 106
a 191 97 138
a 191 97 237
a 191 125 158
a 191 125 44
a 191 73 231
a 191 73 181
a 192 150 13
a 192 150 186
a 192 150 125
a 192 90 108
a 192 90 66
a 192 90 153
a 192 113 165
a 192 113 18
a 192 113 109
a 192 14 221
a 192 14 149
a 192 14 93
a 192 92 221
a 192 92 99
a 192 92 139
a 193 94 185
a 193 94 221
a 193 212 208
a 193 212 183
a 193 212 142
a 193 237 31
a 193 237 85
a 193 237 167
a 193 111 180
a 193 111 63
a 193 111 254
a 193 96 108
a 193 96 125
a 194 48 196
a 194 48 132
a 194 48 24
a 194 25 156
a 194 25 68
a 194 25 130
a 194 190 206
a 194 190 210
a 194 63 186
a 194 254 245
a 194 27 50
a 195 159 173
a 195 159 11
a 195 161 69
a 195 161 85
a 195 161 95
a 195 87 238
a 195 87 163
a 195 87 157
a 195 187 187
a 195 187 241
a 195 168 40
a 195 168 117
a 196 63 52
a 196 63 31
a 196 63 162
a 196 249 200
a 196 249 216
a 196 254 38
a 196 254 54
a 196 88 210
a 197 147 86
a 197 147 228
a 197 147 46
a 197 214 206
a 197 214 58
a 197 115 118
a 198 120 38
a 198 120 111
a 198 120 131
a 198 38 194
a 198 38 207
a 198 38 248
a 198 24 197
a 198 24 13
a 198 62 130
a 198 39 197
a 198 15 242
a 199 191 186
a 199 191 16
a 199 73 230
a 200 166 249
a 200 166 19
a 200 172 136
a 200 172 109
a 200 218 113
a 200 218 198
a 200 101 43
a 200 101 195
a 200 19 53
a 200 150 32
a 201 37 22
a 201 37 4
a 201 180 78
a 202 25 179
a 202 25 37
a 202 196 21
a 202 196 119
a 203 28 192
a 203 28 26
a 203 157 252
a 203 157 34
a 203 157 67
a 203 72 163
a 203 72 66
a 203 72 151
a 203 8 238
a 203 8 11
a 203 8 59
a 203 246 143
a 203 246 114
a 204 238 255
a 204 238 20
a 204 165 96
a 204 165 42
a 204 205 186
a 204 205 137
a 204 205 10
a 204 44 167
a 204 44 0
a 204 44 66
a 204 4 252
a 204 4 209
a 204 4 183
a 204 143 131
a 205 238 16
a 205 238 129
a 205 238 234
a 205 165 22
a 205 165 209
a 205 165 160
a 205 204 136
a 205 204 229
a 205 44 104
a 205 44 231
a 205 4 214
a 205 4 243
a 205 155 231
a 206 91 13
a 206 91 75
a 206 91 78
a 207 26 124
a 207 26 217
a 207 26 57
a 207 22 64
a 207 22 111
a 207 22 70
a 207 53 35
a 207 53 220
a 207 88 26
a 208 178 78
a 208 178 219
a 208 178 46
a 208 233 86
a 208 233 236
a 208 233 255
a 208 93 232
a 208 93 89
a 208 93 119
a 208 3 83
a 208 3 84
a 208 55 141
a 208 55 8
a 208 55 180
a 209 104 75
a 209 104 176
a 209 104 5
a 209 105 177
a 209 164 236
a 210 86 23
a 210 86 79
a 210 86 214
a 210 91 3
a 210 91 154
a 210 78 218
a 210 78 193
a 210 169 242
a 210 169 202
a 210 217 173
a 211 41 97
a 211 41 86
a 211 79 171
a 211 79 120
a 211 124 76
a 211 124 248
a 211 92 56
a 211 92 120
a 211 92 42
a 211 31 200
a 211 31 83
a 211 69 185
a 212 94 205
a 212 94 132
a 212 193 67
a 212 193 211
a 212 111 12
a 212 111 35
a 212 111 254
a 212 155 170
a 213 129 102
a 213 129 156
a 213 129 112
a 213 230 193
a 213 230 218
a 213 241 137
a 213 241 245
a 213 234 167
a 214 146 61
a 214 146 29
a 214 197 2
a 214 197 187
a 214 197 95
a 214 147 150
a 214 147 91
a 214 108 31
a 214 108 217
a 214 80 173
a 215 85 69
a 215 85 142
a 215 85 105
a 215 56 244
a 215 56 196
a 215 56 168
a 215 149 72
a 215 149 248
a 215 149 61
a 215 99 136
a 215 99 212
a 215 173 255
a 215 173 122
a 215 58 244
a 215 89 167
a 216 154 217
a 216 154 249
a 216 154 193
a 216 9 241
a 216 9 5
a 216 9 130
a 216 255 249
a 216 255 18
a 216 168 88
a 216 168 96
a 217 228 229
a 217 228 128
a 217 51 177
a 217 51 119
a 217 134 222
a 217 134 97
a 217 134 241
a 217 191 22
a 217 191 56
a 218 166 215
a 218 166 220
a 218 172 23
a 218 172 183
a 218 172 232
a 218 200 142
a 218 200 157
a 218 200 191
a 218 101 122
a 218 101 103
a 219 135 31
a 219 135 28
a 219 198 43
a 220 221 144
a 220 221 8
a 220 185 74
a 220 185 120
a 220 185 134
a 220 129 233
a 220 129 241
a 220 33 252
a 221 43 191
a 221 43 233
a 221 43 87
a 221 220 10
a 221 220 142
a 221 167 220
a 222 118 210
a 222 118 144
a 222 52 34
a 222 52 13
a 222 98 154
a 222 98 121
a 222 110 248
a 222 110 206
a 222 89 22
a 222 89 216
a 222 89 105
a 222 69 162
a 223 47 94
a 223 47 146
a 223 47 252
a 223 131 242
a 223 131 140
a 223 131 143
a 223 23 187
a 223 23 250
a 223 23 207
a 223 36 94
a 223 36 198
a 223 7 56
a 223 7 106
a 223 7 86
a 223 5 164
a 223 5 209
a 223 85 163
a 223 141 226
a 224 158 157
a 224 158 37
a 224 158 2
a 224 162 221
a 224 219 180
a 225 73 37
a 225 73 92
a 225 73 43
a 225 118 190
a 225 69 8
a 225 69 31
a 225 197 209
a 226 146 24
a 226 146 255
a 226 146 231
a 226 197 30
a 226 197 95
a 226 197 156
a 226 147 180
a 226 147 56
a 226 147 215
a 226 214 184
a 226 214 242
a 226 108 237
a 226 108 251
a 226 2 167
a 227 61 19
a 227 61 23
a 227 137 45
a 227 137 3
a 227 137 72
a 227 32 59
a 227 32 109
a 227 64 103
a 227 64 4
a 227 117 232
a 227 243 245
a 227 206 234
a 227 1 235
a 228 217 251
a 228 217 136
a 228 217 154
a 228 51 234
a 228 51 251
a 228 51 69
a 228 73 180
a 229 29 178
a 229 29 180
a 229 58 74
a 229 58 166
a 229 58 11
a 229 45 81
a 229 45 62
a 229 76 4
a 229 76 197
a 229 136 237
a 229 136 12
a 230 213 61
a 230 213 208
a 230 129 14
a 230 129 13
a 230 129 131
a 230 241 93
a 230 241 37
a 230 241 185
a 230 33 112
a 230 33 89
a 231 184 222
a 231 184 1
a 231 121 225
a 231 121 129
a 231 121 130
a 231 224 142
a 231 224 52
a 231 219 123
a 232 57 63
a 232 57 128
a 232 1 132
a 232 148 96
a 232 178 9
a 233 208 105
a 233 208 108
a 233 178 173
a 233 178 35
a 233 93 96
a 233 93 42
a 233 93 29
a 233 3 214
a 233 3 134
a 233 3 224
a 234 74 214
a 234 74 35
a 234 86 124
a 235 21 86
a 235 21 235
a 235 21 250
a 235 84 227
a 235 84 9
a 235 84 253
a 235 167 221
a 235 167 31
a 235 167 126
a 235 183 178
a 235 183 195
a 235 106 33
a 236 42 18
a 236 42 132
a 236 46 230
a 236 46 110
a 236 46 41
a 236 77 196
a 236 77 253
a 236 77 246
a 236 116 96
a 236 116 69
a 236 116 116
a 236 182 35
a 236 182 174
a 237 94 76
a 237 94 202
a 237 94 92
a 237 193 238
a 237 193 202
a 237 212 254
a 237 212 167
a 237 111 85
a 237 111 7
a 237 111 166
a 237 96 164
a 237 96 118
a 237 165 170
a 237 4 89
a 237 178 245
a 238 165 73
a 238 165 74
a 238 165 239
a 238 205 204
a 238 205 211
a 238 204 222
a 238 204 12
a 238 204 5
a 238 44 77
a 238 44 238
a 238 4 108
a 238 4 204
a 238 4 178
a 238 186 107
a 238 186 89
a 238 186 24
a 238 93 246
a 239 60 58
a 239 60 92
a 239 250 198
a 239 250 176
a 239 250 32
a 239 35 230
a 239 35 92
a 239 256 80
a 239 256 28
a 239 256 52
a 240 145 181
a 240 145 162
a 240 145 133
a 240 216 117
a 241 213 112
a 241 213 192
a 241 129 190
a 241 129 129
a 241 230 70
a 241 230 224
a 241 119 156
a 241 119 51
a 241 73 205
a 242 128 72
a 242 128 192
a 242 152 63
a 242 152 75
a 242 102 190
a 242 102 138
a 242 245 220
a 242 245 132
a 243 117 140
a 243 117 221
a 243 59 4
a 243 59 148
a 243 66 35
a 243 66 202
a 243 66 213
a 243 74 90
a 243 246 133
a 244 81 99
a 244 81 59
a 244 31 171
a 244 31 200
a 244 68 140
a 244 68 62
a 244 68 53
a 244 177 191
a 244 177 66
a 244 177 96
a 244 248 230
a 244 248 240
a 245 128 211
a 245 128 93
a 245 128 107
a 245 152 66
a 245 152 94
a 245 242 160
a 245 242 52
a 245 242 35
a 245 102 46
a 245 102 167
a 245 102 11
a 245 36 11
a 246 253 70
a 246 253 230
a 246 228 122
a 246 228 210
a 246 51 74
a 246 51 204
a 246 51 215
a 246 123 119
a 247 33 69
a 247 33 202
a 247 119 109
a 247 119 29
a 247 181 23
a 247 64 226
a 247 186 243
a 248 81 94
a 248 81 201
a 248 31 185
a 248 31 93
a 248 68 157
a 248 68 108
a 248 68 153
a 248 177 140
a 248 177 185
a 248 177 248
a 248 175 45
a 248 175 141
a 248 130 130
a 248 213 65
a 249 196 34
a 249 196 109
a 249 63 55
a 249 63 145
a 249 254 163
a 249 254 168
a 249 254 138
a 249 26 142
a 249 122 121
a 250 60 60
a 250 60 147
a 250 60 90
a 250 239 78
a 250 239 98
a 250 239 168
a 250 35 30
a 250 35 65
a 250 35 150
a 250 256 73
a 250 256 207
a 250 256 108
a 250 128 243
a 250 128 203
a 250 131 101
a 251 70 173
a 251 70 72
a 251 70 46
a 251 123 75
a 251 123 198
a 251 123 231
a 251 103 101
a 251 183 70
a 252 27 11
a 252 27 200
a 252 27 60
a 252 103 83
a 252 103 172
a 252 103 238
a 252 127 84
a 252 127 200
a 252 127 34
a 252 84 58
a 252 84 75
a 252 183 236
a 252 160 93
a 253 246 137
a 253 246 197
a 253 217 145
a 253 217 0
a 253 73 177
a 253 232 194
a 254 196 130
a 254 196 200
a 254 196 178
a 254 63 174
a 254 63 208
a 254 249 221
a 254 249 193
a 255 154 98
a 255 154 157
a 255 216 120
a 255 216 202
a 255 9 13
a 255 9 195
a 255 9 176
a 255 18 244
a 255 18 255
a 256 60 194
a 256 60 21
a 256 239 206
a 256 239 75
a 256 239 64
a 256 35 15
a 256 35 108
a 256 35 188
a 256 17 242
a 256 17 205
a 256 75 121
